start "Py"
 geometry
  C   -2.94080591537497      0.17068346007868     -3.28030020011508
  C   -1.57210358758152      0.28770678091455     -3.11102506878794
  C   -1.77892798561835     -0.14692943749218     -0.78735130991220
  C   -3.15195318950415     -0.27304503293745     -0.90956832202416
  C   -3.73870158233360     -0.11342697477250     -2.16894389488011
  H   -4.81226995564319     -0.21128691769864     -2.28543007875081
  H   -3.74542132476762     -0.49788737096278     -0.03325563050993
  H   -1.23782392069188     -0.25650808029278      0.14171225500709
  H   -0.87943739129052      0.51113410351389     -3.90948105853852
  H   -3.37091284236561      0.30546594394738     -4.26427900689890
  N   -1.04130351572674      0.12419363910388     -1.88226623284238
 end

 charge 0
 
 basis "ao basis"
  * library 6-31G*
 end

 basis "cd basis"
  * library "Ahlrichs Coulomb Fitting"
 end

 driver
  xyz output
 end
 
 dft
  xc b3lyp
  direct
 end

 task dft
